0 55 60
1 58 61
2 46 60
3 40 60
4 47 56
5 34 55
6 16 53
7 51 52
8 39 47
9 27 46
10 26 40
11 37 39
12 31 41
13 26 39
14 28 40
15 36 39
16 33 36
17 26 33
18 26 37
19 35 36
20 29 35
21 20 34
22 29 36
23 17 33
24 24 29
25 23 27
26 22 27
27 23 25
28 22 23
29 11 21
30 14 19
31 17 17
32 15 18
33 7 14
34 5 13
35 14 14
36 13 14
37 13 12
38 3 11
39 11 11
40 8 10
41 5 10
42 8 8
43 6 7
44 6 6
45 5 5
46 3 3
47 1 1
48 1 1
49 1 1

